;; ===================== PROJECTED CANON (QE) =====================
;; Each clause below is entailed by Proj = ∃W.F over the canonical vocabulary.
;; Units appear first for clarity; OR-clauses (SAT-filtered) follow.
;; ==================================================================

;; Unit Bool constraints (entailed)
(assert patient_is_exposed_to_beta_adrenergic_receptor_agonist_now)
